800 4200 1900 4900
1900 4900 3000 4300
3000 4300 4200 4000
3000 4900 2600 3800
3000 4700 3100 3700
1000 3500 2000 4000
2000 4000 3300 3500
2600 3800 2300 2500
3300 3500 3350 2700
2300 2500 1400 2100
1400 2100 200 2100
1400 2100 1700 1600
1700 1600 1500 1000
2300 2500 3300 2700
2300 2500 3200 1600

2800 4150 1000
1600 1100 800
3600 1800 1200
1700 2400 700
2700 3000 500
2100 2600 1000